; aiobotocore :: corpus-study/repo_src/aiobotocore/aiobotocore/retries/adaptive.py :: LOCK 'AsyncClientRateLimiter._lock' :: structured encoding (verdict: unsat)
; Generated by snf-pipeline (encoder.py) -- run with any
; SMT-LIB2-compliant solver, e.g. `z3 aiobotocore__corpus-study_repo_src_aiobotocore_aiobotocore_retries_adaptive.py__AsyncClientRateLimiter._lock__structured.smt2`
; benchmark generated from python API
(set-info :status unknown)
(declare-fun lorder_0 () Int)
(assert
 (>= lorder_0 1))
(assert
 (<= lorder_0 1))
(assert
 (and true))
(assert
 false)
(check-sat)
